(set-logic HORN)
(declare-fun state (Int Int Int (Array Int Int) Int (Array Int Int) Int (Array Int Int) Int Int Bool Bool Int Int Int Int Int Int) Bool)
(assert (forall ((|main@%tmp11.i_0_3| Int) (|.y.13| Int) (|.y.14| Int) (|main@%shadow.mem2.0_0_3| (Array Int Int)) (|main@%tmp14.i_0_3| Int) (|main@%shadow.mem.0_0_3| (Array Int Int)) (|main@%tmp17.i_0_3| Int) (|main@%shadow.mem1.0_0_3| (Array Int Int)) (|main@%x.0.i_0_1| Int) (|main@%tmp2.i_0_3| Int) (|.loc.15| Bool) (|.loc.16| Bool) (|main@%tmp38.i_0| Int) (|main@%tmp41.i_0| Int) (|main@%tmp63.i_0_0| Int) (|main@%tmp56.i_0_0| Int) (|main@%tmp60.i_0_0| Int) (|main@%tmp52.i_0_0| Int) (|.loc.27| Bool) (|.y.26| Int) (|.y.17| Int) (|.y.25| Int) (|.y.20| (Array Int Int)) (|.y.21| Int) (|.y.22| (Array Int Int)) (|.y.23| Int) (|.y.24| (Array Int Int)) (|.loc.28| Bool) (|.y.18| Int) (|.y.19| Int) (|.xtv.1| Int) (|.xtv.2| Int) (|.xtv.3| Int) (|.xtv.4| Int) (|.xtv.5| Int) (|.xtv.6| Int)) (=> (and (not .loc.15) (not .loc.16)) (state |main@%tmp11.i_0_3| |.y.13| |.y.14| |main@%shadow.mem2.0_0_3| |main@%tmp14.i_0_3| |main@%shadow.mem.0_0_3| |main@%tmp17.i_0_3| |main@%shadow.mem1.0_0_3| |main@%x.0.i_0_1| |main@%tmp2.i_0_3| |.loc.15| |.loc.16| |main@%tmp38.i_0| |main@%tmp41.i_0| |main@%tmp63.i_0_0| |main@%tmp56.i_0_0| |main@%tmp60.i_0_0| |main@%tmp52.i_0_0|))))
(assert (forall ((|main@%tmp11.i_0_3| Int) (|.y.13| Int) (|.y.14| Int) (|main@%shadow.mem2.0_0_3| (Array Int Int)) (|main@%tmp14.i_0_3| Int) (|main@%shadow.mem.0_0_3| (Array Int Int)) (|main@%tmp17.i_0_3| Int) (|main@%shadow.mem1.0_0_3| (Array Int Int)) (|main@%x.0.i_0_1| Int) (|main@%tmp2.i_0_3| Int) (|.loc.15| Bool) (|.loc.16| Bool) (|main@%tmp38.i_0| Int) (|main@%tmp41.i_0| Int) (|main@%tmp63.i_0_0| Int) (|main@%tmp56.i_0_0| Int) (|main@%tmp60.i_0_0| Int) (|main@%tmp52.i_0_0| Int) (|.loc.27| Bool) (|.y.26| Int) (|.y.17| Int) (|.y.25| Int) (|.y.20| (Array Int Int)) (|.y.21| Int) (|.y.22| (Array Int Int)) (|.y.23| Int) (|.y.24| (Array Int Int)) (|.loc.28| Bool) (|.y.18| Int) (|.y.19| Int) (|.xtv.1| Int) (|.xtv.2| Int) (|.xtv.3| Int) (|.xtv.4| Int) (|.xtv.5| Int) (|.xtv.6| Int)) (=> (and (state |main@%tmp11.i_0_3| |.y.13| |.y.14| |main@%shadow.mem2.0_0_3| |main@%tmp14.i_0_3| |main@%shadow.mem.0_0_3| |main@%tmp17.i_0_3| |main@%shadow.mem1.0_0_3| |main@%x.0.i_0_1| |main@%tmp2.i_0_3| |.loc.15| |.loc.16| |main@%tmp38.i_0| |main@%tmp41.i_0| |main@%tmp63.i_0_0| |main@%tmp56.i_0_0| |main@%tmp60.i_0_0| |main@%tmp52.i_0_0|) (let ((.def_28 (not .loc.15))) (let ((.def_29 (not .loc.16))) (let ((.def_31 (select main@%shadow.mem2.0_0_3 main@%tmp56.i_0_0))) (let ((.def_35 (select main@%shadow.mem.0_0_3 main@%tmp60.i_0_0))) (let ((.def_40 (select main@%shadow.mem1.0_0_3 main@%tmp52.i_0_0))) (let ((.def_52 (<= main@%tmp14.i_0_3 0))) (let ((.def_58 (<= main@%tmp11.i_0_3 0))) (let ((.def_61 (not (<= main@%tmp56.i_0_0 0)))) (let ((.def_72 (not (<= main@%tmp52.i_0_0 0)))) (let ((.def_73 (<= main@%tmp17.i_0_3 0))) (let ((.def_76 (not .def_73))) (let ((.def_83 (not .def_52))) (let ((.def_84 (and (and (or (not (<= main@%tmp60.i_0_0 0)) .def_52) (and (= (+ main@%tmp14.i_0_3 (+ main@%x.0.i_0_1 (* (- 1) main@%tmp60.i_0_0))) 0) (and (not .def_58) (and (or .def_58 .def_61) (and (= (+ main@%tmp11.i_0_3 (+ main@%x.0.i_0_1 (* (- 1) main@%tmp56.i_0_0))) 0) (and (and (= (+ main@%tmp17.i_0_3 (+ main@%x.0.i_0_1 (* (- 1) main@%tmp52.i_0_0))) 0) (or .def_72 .def_73)) .def_76)))))) .def_83))) (let ((.def_98 (not .loc.27))) (let ((.def_107 (<= (to_int (* (/ 1 16777216) (to_real (* (- 1) (* (- 16777216) main@%x.0.i_0_1))))) .y.14))) (let ((.def_111 (= main@%shadow.mem2.0_0_3 .y.20))) (let ((.def_114 (= main@%tmp14.i_0_3 .y.21))) (let ((.def_117 (= main@%shadow.mem.0_0_3 .y.22))) (let ((.def_120 (= main@%tmp17.i_0_3 .y.23))) (let ((.def_123 (= main@%shadow.mem1.0_0_3 .y.24))) (let ((.def_155 (= main@%tmp11.i_0_3 .y.17))) (let ((.def_175 (not .loc.28))) (let ((.def_199 (<= .y.13 0))) (or (or (and (or (or (and (and .def_28 (and .loc.16 (and (= (+ main@%tmp63.i_0_0 (+ (* (- 1) .def_31) .def_35)) 0) (and (not (= main@%tmp63.i_0_0 .def_40)) (and (not (<= (to_int (* (/ 1 16777216) (to_real (* 16777216 main@%tmp2.i_0_3)))) main@%x.0.i_0_1)) .def_84))))) .loc.27) (and (= main@%x.0.i_0_1 .y.26) (and (and (and (and (and (and (= .y.13 .y.17) (and (and (= .y.25 0) (and .def_29 (and .loc.15 .def_98))) .def_107)) .def_111) .def_114) .def_117) .def_120) .def_123))) (and (= main@%tmp2.i_0_3 .y.26) (and (and (= (+ main@%x.0.i_0_1 (* (- 1) .y.25)) (- 1)) (and (= (+ .def_31 (+ (* (- 1) .def_35) (* (- 1) .def_40))) 0) (and (not (<= (to_int (* (/ 1 16777216) (to_real (* (- 1) (* (- 16777216) main@%tmp2.i_0_3))))) main@%x.0.i_0_1)) (and .def_123 (and .def_120 (and .def_117 (and .def_114 (and .def_111 (and .def_98 (and .def_28 (and .loc.16 .def_84))))))))))) .def_155))) .loc.28) (and (not (<= .y.25 0)) (and (not (<= .y.18 0)) (and (not (<= .y.21 0)) (and (not (<= .y.23 0)) (and (= .y.19 0) (and (and .def_155 (and .def_29 (and .def_28 .loc.27))) .def_175))))))) (and (= main@%x.0.i_0_1 .y.25) (and (= .y.13 .y.18) (and (or .def_73 (not (<= main@%tmp41.i_0 0))) (and (= (+ .y.14 (+ main@%tmp17.i_0_3 (* (- 1) main@%tmp41.i_0))) 0) (and (= (+ main@%tmp38.i_0 (+ main@%tmp63.i_0_0 (* (- 1) main@%tmp60.i_0_0))) 0) (and (or .def_52 .def_61) (and (= (+ .y.14 (+ main@%tmp14.i_0_3 (* (- 1) main@%tmp56.i_0_0))) 0) (and (not .def_199) (and (or .def_72 .def_199) (and (= (+ .y.13 (+ .y.14 (* (- 1) main@%tmp52.i_0_0))) 0) (and (not .def_107) (and (= .y.20 (store main@%shadow.mem2.0_0_3 main@%tmp52.i_0_0 main@%tmp60.i_0_0)) (and (= .y.22 (store main@%shadow.mem.0_0_3 main@%tmp56.i_0_0 main@%tmp63.i_0_0)) (and (= .y.24 (store main@%shadow.mem1.0_0_3 main@%tmp41.i_0 main@%tmp38.i_0)) (and (= (+ .y.14 (* (- 1) .y.19)) (- 1)) (and .def_175 (and .def_155 (and .def_120 (and .def_114 (and .def_29 (and .loc.27 (and .loc.15 (and .def_76 .def_83)))))))))))))))))))))))))))))))))))))))))))))))) (state |.y.17| |.y.18| |.y.19| |.y.20| |.y.21| |.y.22| |.y.23| |.y.24| |.y.25| |.y.26| |.loc.27| |.loc.28| |.xtv.1| |.xtv.2| |.xtv.3| |.xtv.4| |.xtv.5| |.xtv.6|))))
(assert (forall ((|main@%tmp11.i_0_3| Int) (|.y.13| Int) (|.y.14| Int) (|main@%shadow.mem2.0_0_3| (Array Int Int)) (|main@%tmp14.i_0_3| Int) (|main@%shadow.mem.0_0_3| (Array Int Int)) (|main@%tmp17.i_0_3| Int) (|main@%shadow.mem1.0_0_3| (Array Int Int)) (|main@%x.0.i_0_1| Int) (|main@%tmp2.i_0_3| Int) (|.loc.15| Bool) (|.loc.16| Bool) (|main@%tmp38.i_0| Int) (|main@%tmp41.i_0| Int) (|main@%tmp63.i_0_0| Int) (|main@%tmp56.i_0_0| Int) (|main@%tmp60.i_0_0| Int) (|main@%tmp52.i_0_0| Int) (|.loc.27| Bool) (|.y.26| Int) (|.y.17| Int) (|.y.25| Int) (|.y.20| (Array Int Int)) (|.y.21| Int) (|.y.22| (Array Int Int)) (|.y.23| Int) (|.y.24| (Array Int Int)) (|.loc.28| Bool) (|.y.18| Int) (|.y.19| Int) (|.xtv.1| Int) (|.xtv.2| Int) (|.xtv.3| Int) (|.xtv.4| Int) (|.xtv.5| Int) (|.xtv.6| Int)) (=> (state |main@%tmp11.i_0_3| |.y.13| |.y.14| |main@%shadow.mem2.0_0_3| |main@%tmp14.i_0_3| |main@%shadow.mem.0_0_3| |main@%tmp17.i_0_3| |main@%shadow.mem1.0_0_3| |main@%x.0.i_0_1| |main@%tmp2.i_0_3| |.loc.15| |.loc.16| |main@%tmp38.i_0| |main@%tmp41.i_0| |main@%tmp63.i_0_0| |main@%tmp56.i_0_0| |main@%tmp60.i_0_0| |main@%tmp52.i_0_0|) (not (and .loc.15 .loc.16)))))
(check-sat)
